c colouring generated by benchmark framework
p edge 500 58862
v 1 21
v 2 14
v 3 38
v 4 35
v 5 46
v 6 67
v 7 102
v 8 119
v 9 6
v 10 40
v 11 43
v 12 85
v 13 23
v 14 99
v 15 53
v 16 8
v 17 51
v 18 103
v 19 92
v 20 99
v 21 51
v 22 3
v 23 38
v 24 48
v 25 108
v 26 49
v 27 0
v 28 111
v 29 70
v 30 6
v 31 6
v 32 56
v 33 65
v 34 2
v 35 88
v 36 95
v 37 3
v 38 46
v 39 47
v 40 57
v 41 38
v 42 31
v 43 49
v 44 74
v 45 12
v 46 97
v 47 61
v 48 22
v 49 20
v 50 20
v 51 56
v 52 9
v 53 73
v 54 61
v 55 59
v 56 66
v 57 73
v 58 37
v 59 52
v 60 27
v 61 44
v 62 24
v 63 123
v 64 123
v 65 79
v 66 66
v 67 61
v 68 105
v 69 46
v 70 62
v 71 47
v 72 87
v 73 29
v 74 74
v 75 87
v 76 48
v 77 31
v 78 51
v 79 89
v 80 7
v 81 115
v 82 28
v 83 42
v 84 51
v 85 68
v 86 64
v 87 109
v 88 4
v 89 8
v 90 4
v 91 24
v 92 90
v 93 28
v 94 100
v 95 26
v 96 29
v 97 108
v 98 19
v 99 84
v 100 18
v 101 118
v 102 46
v 103 54
v 104 59
v 105 4
v 106 20
v 107 84
v 108 9
v 109 55
v 110 72
v 111 106
v 112 63
v 113 2
v 114 64
v 115 110
v 116 101
v 117 125
v 118 39
v 119 74
v 120 116
v 121 75
v 122 57
v 123 33
v 124 5
v 125 103
v 126 37
v 127 1
v 128 0
v 129 11
v 130 40
v 131 93
v 132 109
v 133 117
v 134 104
v 135 18
v 136 109
v 137 18
v 138 12
v 139 115
v 140 96
v 141 53
v 142 24
v 143 51
v 144 102
v 145 116
v 146 62
v 147 104
v 148 20
v 149 98
v 150 32
v 151 115
v 152 36
v 153 43
v 154 11
v 155 5
v 156 90
v 157 76
v 158 117
v 159 101
v 160 44
v 161 97
v 162 78
v 163 85
v 164 57
v 165 120
v 166 23
v 167 12
v 168 52
v 169 25
v 170 2
v 171 68
v 172 112
v 173 30
v 174 77
v 175 25
v 176 104
v 177 69
v 178 43
v 179 74
v 180 89
v 181 41
v 182 28
v 183 7
v 184 90
v 185 33
v 186 31
v 187 28
v 188 80
v 189 10
v 190 6
v 191 106
v 192 45
v 193 4
v 194 75
v 195 123
v 196 97
v 197 57
v 198 102
v 199 67
v 200 58
v 201 38
v 202 100
v 203 33
v 204 0
v 205 84
v 206 23
v 207 34
v 208 30
v 209 45
v 210 105
v 211 41
v 212 66
v 213 103
v 214 71
v 215 12
v 216 78
v 217 52
v 218 36
v 219 54
v 220 92
v 221 2
v 222 2
v 223 9
v 224 11
v 225 57
v 226 22
v 227 43
v 228 32
v 229 103
v 230 53
v 231 14
v 232 86
v 233 4
v 234 60
v 235 8
v 236 29
v 237 114
v 238 0
v 239 10
v 240 93
v 241 110
v 242 10
v 243 55
v 244 44
v 245 50
v 246 63
v 247 75
v 248 22
v 249 94
v 250 80
v 251 71
v 252 1
v 253 69
v 254 46
v 255 30
v 256 120
v 257 7
v 258 93
v 259 33
v 260 44
v 261 31
v 262 17
v 263 94
v 264 58
v 265 99
v 266 34
v 267 27
v 268 85
v 269 111
v 270 105
v 271 1
v 272 101
v 273 13
v 274 23
v 275 58
v 276 64
v 277 114
v 278 125
v 279 102
v 280 14
v 281 98
v 282 70
v 283 56
v 284 1
v 285 111
v 286 107
v 287 69
v 288 72
v 289 76
v 290 125
v 291 10
v 292 14
v 293 26
v 294 86
v 295 50
v 296 7
v 297 104
v 298 27
v 299 107
v 300 8
v 301 54
v 302 60
v 303 122
v 304 32
v 305 108
v 306 96
v 307 68
v 308 21
v 309 65
v 310 5
v 311 96
v 312 63
v 313 69
v 314 70
v 315 126
v 316 18
v 317 3
v 318 113
v 319 55
v 320 5
v 321 40
v 322 25
v 323 72
v 324 2
v 325 116
v 326 0
v 327 68
v 328 106
v 329 42
v 330 93
v 331 82
v 332 3
v 333 82
v 334 127
v 335 48
v 336 76
v 337 82
v 338 114
v 339 61
v 340 88
v 341 30
v 342 86
v 343 16
v 344 17
v 345 118
v 346 42
v 347 113
v 348 37
v 349 49
v 350 94
v 351 112
v 352 26
v 353 24
v 354 47
v 355 56
v 356 71
v 357 107
v 358 77
v 359 18
v 360 58
v 361 87
v 362 121
v 363 81
v 364 106
v 365 23
v 366 36
v 367 77
v 368 50
v 369 95
v 370 35
v 371 62
v 372 86
v 373 121
v 374 68
v 375 7
v 376 82
v 377 120
v 378 22
v 379 10
v 380 115
v 381 13
v 382 66
v 383 105
v 384 13
v 385 119
v 386 127
v 387 124
v 388 119
v 389 65
v 390 41
v 391 98
v 392 98
v 393 67
v 394 81
v 395 59
v 396 125
v 397 36
v 398 67
v 399 40
v 400 51
v 401 64
v 402 91
v 403 39
v 404 9
v 405 121
v 406 91
v 407 27
v 408 15
v 409 6
v 410 13
v 411 81
v 412 34
v 413 75
v 414 8
v 415 62
v 416 48
v 417 118
v 418 91
v 419 45
v 420 124
v 421 6
v 422 73
v 423 42
v 424 21
v 425 19
v 426 38
v 427 50
v 428 79
v 429 27
v 430 17
v 431 96
v 432 91
v 433 83
v 434 58
v 435 113
v 436 19
v 437 25
v 438 92
v 439 76
v 440 95
v 441 16
v 442 9
v 443 72
v 444 110
v 445 55
v 446 60
v 447 31
v 448 81
v 449 65
v 450 63
v 451 126
v 452 122
v 453 90
v 454 17
v 455 16
v 456 88
v 457 83
v 458 83
v 459 100
v 460 85
v 461 61
v 462 71
v 463 15
v 464 0
v 465 84
v 466 70
v 467 5
v 468 8
v 469 47
v 470 41
v 471 39
v 472 105
v 473 26
v 474 35
v 475 79
v 476 13
v 477 15
v 478 16
v 479 89
v 480 11
v 481 19
v 482 42
v 483 93
v 484 123
v 485 73
v 486 78
v 487 52
v 488 35
v 489 53
v 490 95
v 491 100
v 492 80
v 493 60
v 494 89
v 495 22
v 496 3
v 497 59
v 498 88
v 499 32
v 500 59
